32      4       
10      10      10      10      
0       0       0       0       0       13      2       3       4       5       6       8       9       10      11      13      15      16      31      
1       1       1       0       1       9       14      18      19      21      23      24      26      29      30      
2       0       2       1       4       6       12      17      20      23      24      25      
10      2       2       3       0       4       7       18      19      25      
2       2       5       6       0       5       17      19      21      26      28      
1       3       0       3       4       4       14      18      19      20      
1       6       5       0       3       4       17      20      22      23      
10      0       2       7       6       4       17      18      21      27      
9       0       5       3       4       4       17      20      21      22      
5       5       3       4       0       3       14      20      25      
7       4       6       5       0       3       18      21      24      
8       0       7       4       5       2       18      19      
10      5       3       0       1       2       17      22      
7       6       2       0       7       1       17      
1       0       6       3       6       1       18      
4       6       5       0       4       1       17      
10      1       0       7       5       1       32      
1       5       0       4       2       1       32      
6       4       2       0       4       1       32      
2       0       6       5       3       1       32      
1       0       3       4       5       1       32      
4       5       5       4       0       1       32      
6       2       3       0       4       1       32      
5       7       3       2       0       1       32      
6       5       0       5       1       1       32      
9       3       2       3       0       1       32      
8       0       10      3       4       1       32      
6       5       4       2       0       1       32      
3       4       4       6       0       1       32      
8       3       4       0       6       1       32      
7       4       4       0       5       1       32      
0       0       0       0       0       0       
